200
150
100
99
99
98
98
98
98
98
98
98
96
95
91
91
90
90
90
90
90
89
88
88
87
87
87
85
85
85
84
84
83
83
82
81
81
81
81
80
80
80
80
80
79
79
79
79
78
77
77
76
75
74
74
73
73
73
73
73
72
71
71
71
70
70
70
69
69
69
69
69
68
68
68
67
67
66
65
65
64
64
64
63
63
63
62
61
61
61
61
61
59
59
59
58
58
58
58
57
56
56
56
55
55
55
55
54
54
53
53
52
52
51
51
50
50
50
50
49
49
48
48
48
46
46
46
46
43
42
42
42
40
39
39
39
39
39
38
36
36
36
35
35
34
34
33
32
31
31
29
27
26
26
26
25
25
24
24
24
23
22
22
21
21
20
20
19
19
18
18
17
17
17
17
17
15
15
14
14
14
13
13
12
12
12
12
12
10
10
10
10
10
10
10
9
8
5
4
4
4
1
